c Random generated cnf formula, satisfiable: true
p cnf 10 50
6 4 -9 0
4 -5 2 0
-9 5 -2 0
3 1 -2 0
-2 4 -7 0
10 5 8 0
-6 7 10 0
-10 -3 5 0
-6 10 -2 0
6 5 -8 0
8 -7 -3 0
3 -1 -10 0
7 9 -6 0
6 1 7 0
9 -8 -5 0
-8 -5 -7 0
-5 -6 -10 0
4 -6 -10 0
-9 10 -8 0
9 -2 10 0
10 -7 9 0
-5 -10 -1 0
-2 -5 3 0
10 -6 -7 0
8 -10 6 0
10 3 4 0
-2 3 -5 0
1 -3 -10 0
7 -5 2 0
-10 -4 9 0
2 -3 4 0
8 10 2 0
2 -7 -5 0
-3 9 4 0
-7 -4 6 0
9 -10 3 0
-9 2 6 0
-6 4 2 0
-9 -7 6 0
-1 5 6 0
-4 9 -1 0
4 -3 -7 0
3 -9 4 0
2 9 3 0
-9 -3 2 0
-9 -3 1 0
5 4 -2 0
7 -10 -4 0
5 7 3 0
-7 -4 -1 0
